10517.0
0 0 1 0 0 1 1 1 1 1 0 1 1 1 1 1 1 1 1 1 
17 17 16 17 16 8 16 8 8 8 8 8 2 8 2 2 2 2 8 12 12 12 12 6 6 12 12 12 6 6 6 14 14 6 6 6 6 6 6 7 19 19 19 7 7 19 19 7 19 7 7 6 7 7 7 7 7 7 7 7 11 11 11 11 11 11 11 7 11 9 9 11 9 11 17 13 9 13 9 9 13 15 15 15 15 15 15 15 5 15 5 18 18 18 18 17 18 18 18 18 